units			real
boundary        p p p
neighbor		2.0 bin
neigh_modify	every 1 delay 0 check yes

atom_style		charge
read_data		str.data

pair_style      reax/c NULL safezone 8.0 mincap 1000
pair_coeff      * * ffield.reax C H O N S

compute			reax all pair reax/c
fix             1 all qeq/reax 1 0.0 10.0 1.0e-6 reax/c

timestep		0.1
thermo			100
thermo_style 	custom step temp pe press pxx pyy pzz lx ly lz

dump            equil all custom 1 min.dump id element type x y z q vx vy vz
dump_modify     equil element C H O N S

################# ENERGY MINIZATION ###################################
min_style       cg
minimize        1.0e-10 1.0e-10 10000 10000
undump          equil

